(set-logic HORN)
(set-info :source |
    Benchmark: C_VC
    Output by Princess (http://www.philipp.ruemmer.org/princess.shtml)
|)
(set-info :status sat)
(declare-heap Heap Addr HeapObject
 defObj
 ((HeapObject 0)) (
  (
   (O_Int (getInt Int))
   (O_UInt (getUInt Int))
   (O_Addr (getAddr Addr))
   (defObj)
  )
))
(declare-fun inv_main2 (Heap Int) Bool)
(declare-fun inv_main27 (Heap Int Int Int AddrRange Int Int Int) Bool)
(declare-fun inv_main31 (Heap Int Int Int AddrRange Int Int Int) Bool)
(declare-fun inv_main32 (Heap Int Int Int AddrRange Int Int Int) Bool)
(declare-fun inv_main33 (Heap Int Int Int AddrRange Int Int Int) Bool)
(declare-fun inv_main34 (Heap Int Int Int AddrRange Int Int Int) Bool)
(declare-fun inv_main35 (Heap Int Int Int AddrRange Int Int Int Int) Bool)
(declare-fun inv_main36 (Heap Int Int Int AddrRange Int Int Int Int) Bool)
(declare-fun inv_main38 (Heap Int Int Int AddrRange Int Int Int) Bool)
(declare-fun inv_main42 (Heap Int Int Int AddrRange Int Int Int) Bool)
(declare-fun inv_main43 (Heap Int Int Int AddrRange Int Int Int) Bool)
(declare-fun inv_main44 (Heap Int Int Int AddrRange Int Int Int) Bool)
(declare-fun inv_main45 (Heap Int Int Int AddrRange Int Int Int) Bool)
(declare-fun inv_main46 (Heap Int Int Int AddrRange Int Int Int Int) Bool)
(declare-fun inv_main47 (Heap Int Int Int AddrRange Int Int Int Int) Bool)
(declare-fun inv_main49 (Heap Int Int Int AddrRange Int Int Int) Bool)
(declare-fun inv_main53 (Heap Int Int Int AddrRange Int Int Int) Bool)
(declare-fun inv_main54 (Heap Int Int Int AddrRange Int Int Int) Bool)
(declare-fun inv_main55 (Heap Int Int Int AddrRange Int Int Int) Bool)
(declare-fun inv_main56 (Heap Int Int Int AddrRange Int Int Int) Bool)
(declare-fun inv_main57 (Heap Int Int Int AddrRange Int Int Int Int) Bool)
(declare-fun inv_main58 (Heap Int Int Int AddrRange Int Int Int Int) Bool)
(declare-fun inv_main60 (Heap Int Int Int AddrRange Int Int Int) Bool)
(declare-fun inv_main63 (Heap Int Int Int AddrRange Int Int Int Int) Bool)
(assert (forall ((var0 Int) (var1 Heap)) (or (not (and (= var1 emptyHeap) (= var0 0))) (inv_main2 var1 var0))))
(assert (forall ((var0 Int) (var1 Int) (var2 Int) (var3 Int) (var4 AddrRange) (var5 Int) (var6 Int) (var7 Int) (var8 Heap)) (or (not (and (inv_main31 var8 var7 var6 var5 var4 var3 var2 var1) (and (is-O_Int (read var8 (nthAddrRange var4 (+ (* 3 var5) (- 2))))) (= var0 (getInt (read var8 (nthAddrRange var4 (+ (* 3 var5) (- 2))))))))) (inv_main35 var8 var7 var6 var5 var4 var3 var2 var1 var0))))
(assert (forall ((var0 Int) (var1 Int) (var2 Int) (var3 Int) (var4 AddrRange) (var5 Int) (var6 Int) (var7 Int) (var8 Heap)) (or (not (and (inv_main45 var8 var7 var6 var5 var4 var3 var2 var1) (and (is-O_Int (read var8 (nthAddrRange var4 (+ (* 3 var5) (- 1))))) (= var0 (getInt (read var8 (nthAddrRange var4 (+ (* 3 var5) (- 1))))))))) (inv_main47 var8 var7 var6 var5 var4 var3 var2 var1 var0))))
(assert (forall ((var0 Int) (var1 Int) (var2 Int) (var3 Int) (var4 AddrRange) (var5 Int) (var6 Int) (var7 Int) (var8 Heap) (var9 Int)) (or (not (and (inv_main49 var8 var7 var6 var5 var4 var3 var2 var1) (and (and (<= 0 (+ var7 (- 1))) (not (or (not (and (and (and (<= 0 (+ (+ 3 (* (- 1) (+ var7 (* (- 3) var9)))) (- 1))) (<= 0 (+ (+ 3 (* 1 (+ var7 (* (- 3) var9)))) (- 1)))) (or (not (<= 0 (+ (+ var7 (* (- 3) var9)) (- 1)))) (<= 0 (+ var7 (- 1))))) (or (not (<= 0 (+ (* (- 1) (+ var7 (* (- 3) var9))) (- 1)))) (<= 0 (+ (* (- 1) var7) (- 1)))))) (<= 0 (+ var9 (* (- 1) var5)))))) (= var0 0)))) (inv_main60 var8 var7 var6 var0 var4 var3 var2 var1))))
(assert (forall ((var0 Int) (var1 Int) (var2 Int) (var3 Int) (var4 Int) (var5 AddrRange) (var6 Int) (var7 Int) (var8 Int) (var9 Heap)) (or (not (and (inv_main63 var9 var8 var7 var6 var5 var4 var3 var2 var1) (and (<= 0 (+ (+ var8 (* (- 1) (+ var6 1))) (- 1))) (= var0 (+ var6 1))))) (inv_main60 var9 var8 var7 var0 var5 var4 var3 var2))))
(assert (forall ((var0 Int) (var1 Int) (var2 Int) (var3 Int) (var4 AddrRange) (var5 Int) (var6 Int) (var7 Int) (var8 Heap) (var9 Int) (var10 Int) (var11 Int) (var12 Int) (var13 AddrRange) (var14 Int) (var15 Int) (var16 Int) (var17 Heap)) (or (not (and (inv_main36 var17 var16 var15 var14 var13 var12 var11 var10 var9) (and (and (and (is-O_Int (read var17 (nthAddrRange var13 (+ (* 3 var14) (- 1))))) (is-O_Int (read var17 (nthAddrRange var13 (+ (* 3 var14) (- 1)))))) (and (and (and (and (and (and (and (= var8 (write var17 (nthAddrRange var13 (+ (* 3 var14) (- 1))) (O_Int var9))) (= var7 var16)) (= var6 var15)) (= var5 var14)) (= var4 var13)) (= var3 var12)) (= var2 var11)) (= var1 var10))) (= var0 (+ var5 1))))) (inv_main27 var8 var7 var6 var0 var4 var3 var2 var1))))
(assert (forall ((var0 Int) (var1 Int) (var2 Int) (var3 Int) (var4 Int) (var5 Int) (var6 Int) (var7 AddrRange) (var8 AddrRange) (var9 Int) (var10 Int) (var11 Int) (var12 Int) (var13 Int) (var14 Int) (var15 Heap) (var16 Heap) (var17 Int) (var18 Int) (var19 Heap) (var20 Int) (var21 Int) (var22 Int) (var23 Int) (var24 Int) (var25 Int)) (or (not (and (inv_main2 var19 var18) (and (and (and (and (and (not (= var17 0)) (and (and (and (and (and (and (and (and (= var16 var15) (= var14 var13)) (= var12 var11)) (= var10 var9)) (= var8 var7)) (= var6 7)) (= var5 3)) (= var4 1)) (or (and (and (and (and (and (and (<= 0 (+ (+ 3 (* (- 1) var20)) (- 1))) (<= 0 (+ (+ 3 (* 1 var20)) (- 1)))) (or (not (<= 0 (+ var20 (- 1)))) (<= 0 (+ var13 (- 1))))) (or (not (<= 0 (+ (* (- 1) var20) (- 1)))) (<= 0 (+ (* (- 1) var13) (- 1))))) (= var13 (+ (* 3 var21) var20))) (= var20 0)) (= var17 1)) (and (not (or (not (and (and (and (and (<= 0 (+ (+ 3 (* (- 1) var22)) (- 1))) (<= 0 (+ (+ 3 (* 1 var22)) (- 1)))) (or (not (<= 0 (+ var22 (- 1)))) (<= 0 (+ var13 (- 1))))) (or (not (<= 0 (+ (* (- 1) var22) (- 1)))) (<= 0 (+ (* (- 1) var13) (- 1))))) (= var13 (+ (* 3 var23) var22)))) (= var22 0))) (= var17 0))))) (and (and (and (and (and (<= 0 (+ (+ 3 (* (- 1) var24)) (- 1))) (<= 0 (+ (+ 3 (* 1 var24)) (- 1)))) (or (not (<= 0 (+ var24 (- 1)))) (<= 0 (+ var13 (- 1))))) (or (not (<= 0 (+ (* (- 1) var24) (- 1)))) (<= 0 (+ (* (- 1) var13) (- 1))))) (= var13 (+ (* 3 var25) var24))) (= var24 0))) (and (and (and (and (= var15 (newBatchHeap (batchAlloc emptyHeap (O_Int var3) var2))) (= var13 var2)) (= var11 2)) (= var9 var1)) (= var7 (newAddrRange (batchAlloc emptyHeap (O_Int var3) var2))))) (<= 0 (+ (+ var2 (- 1)) (- 1)))) (= var0 1)))) (inv_main27 var16 var14 var12 var0 var8 var6 var5 var4))))
(assert (forall ((var0 Heap) (var1 Int) (var2 Int) (var3 Int) (var4 AddrRange) (var5 Int) (var6 Int) (var7 Int) (var8 Heap)) (or (not (and (inv_main32 var8 var7 var6 var5 var4 var3 var2 var1) (and (and (is-O_Int (read var8 (nthAddrRange var4 (+ (* 3 var5) (- 3))))) (is-O_Int (read var8 (nthAddrRange var4 (+ (* 3 var5) (- 3)))))) (= var0 (write var8 (nthAddrRange var4 (+ (* 3 var5) (- 3))) (O_Int var3)))))) (inv_main31 var0 var7 var6 var5 var4 var3 var2 var1))))
(assert (forall ((var0 Heap) (var1 Int) (var2 Int) (var3 Int) (var4 AddrRange) (var5 Int) (var6 Int) (var7 Int) (var8 Heap)) (or (not (and (inv_main33 var8 var7 var6 var5 var4 var3 var2 var1) (and (and (is-O_Int (read var8 (nthAddrRange var4 (+ (* 3 var5) (- 3))))) (is-O_Int (read var8 (nthAddrRange var4 (+ (* 3 var5) (- 3)))))) (= var0 (write var8 (nthAddrRange var4 (+ (* 3 var5) (- 3))) (O_Int 0)))))) (inv_main31 var0 var7 var6 var5 var4 var3 var2 var1))))
(assert (forall ((var0 Int) (var1 Int) (var2 Int) (var3 Int) (var4 AddrRange) (var5 Int) (var6 Int) (var7 Int) (var8 Heap) (var9 Int) (var10 Int) (var11 Int) (var12 AddrRange) (var13 Int) (var14 Int) (var15 Int) (var16 Heap)) (or (not (and (inv_main60 var16 var15 var14 var13 var12 var11 var10 var9) (and (and (and (is-O_Int (read var16 (nthAddrRange var12 var13))) (not (<= 0 (+ (getInt (read var16 (nthAddrRange var12 var13))) (* (- 1) var14))))) (is-O_Int (read var16 (nthAddrRange var12 var13)))) (and (and (and (and (and (and (and (and (= var8 var16) (= var7 var15)) (= var6 var14)) (= var5 var13)) (= var4 var12)) (= var3 var11)) (= var2 var10)) (= var1 var9)) (or (and (= (getInt (read var16 (nthAddrRange var12 var13))) 0) (= var0 1)) (and (not (= (getInt (read var16 (nthAddrRange var12 var13))) 0)) (= var0 0))))))) (inv_main63 var8 var7 var6 var5 var4 var3 var2 var1 var0))))
(assert (forall ((var0 Int) (var1 Int) (var2 Int) (var3 Int) (var4 AddrRange) (var5 Int) (var6 Int) (var7 Int) (var8 Heap)) (or (not (and (inv_main60 var8 var7 var6 var5 var4 var3 var2 var1) (and (and (is-O_Int (read var8 (nthAddrRange var4 var5))) (<= 0 (+ (getInt (read var8 (nthAddrRange var4 var5))) (* (- 1) var6)))) (= var0 1)))) (inv_main63 var8 var7 var6 var5 var4 var3 var2 var1 var0))))
(assert (forall ((var0 Int) (var1 Int) (var2 Int) (var3 Int) (var4 AddrRange) (var5 Int) (var6 Int) (var7 Int) (var8 Heap) (var9 Int)) (or (not (and (inv_main38 var8 var7 var6 var5 var4 var3 var2 var1) (and (not (or (not (and (and (and (<= 0 (+ (+ 3 (* (- 1) (+ var7 (* (- 3) var9)))) (- 1))) (<= 0 (+ (+ 3 (* 1 (+ var7 (* (- 3) var9)))) (- 1)))) (or (not (<= 0 (+ (+ var7 (* (- 3) var9)) (- 1)))) (<= 0 (+ var7 (- 1))))) (or (not (<= 0 (+ (* (- 1) (+ var7 (* (- 3) var9))) (- 1)))) (<= 0 (+ (* (- 1) var7) (- 1)))))) (<= 0 (+ var9 (* (- 1) var5))))) (= var0 1)))) (inv_main49 var8 var7 var6 var0 var4 var3 var2 var1))))
(assert (forall ((var0 Int) (var1 Int) (var2 Int) (var3 Int) (var4 AddrRange) (var5 Int) (var6 Int) (var7 Int) (var8 Heap) (var9 Int) (var10 Int) (var11 Int) (var12 Int) (var13 AddrRange) (var14 Int) (var15 Int) (var16 Int) (var17 Heap)) (or (not (and (inv_main58 var17 var16 var15 var14 var13 var12 var11 var10 var9) (and (and (and (is-O_Int (read var17 (nthAddrRange var13 (+ (* 3 var14) (- 3))))) (is-O_Int (read var17 (nthAddrRange var13 (+ (* 3 var14) (- 3)))))) (and (and (and (and (and (and (and (= var8 (write var17 (nthAddrRange var13 (+ (* 3 var14) (- 3))) (O_Int var9))) (= var7 var16)) (= var6 var15)) (= var5 var14)) (= var4 var13)) (= var3 var12)) (= var2 var11)) (= var1 var10))) (= var0 (+ var5 1))))) (inv_main49 var8 var7 var6 var0 var4 var3 var2 var1))))
(assert (forall ((var0 Int) (var1 Int) (var2 Int) (var3 Int) (var4 AddrRange) (var5 Int) (var6 Int) (var7 Int) (var8 Heap)) (or (not (and (inv_main34 var8 var7 var6 var5 var4 var3 var2 var1) (and (is-O_Int (read var8 (nthAddrRange var4 (+ (* 3 var5) (- 1))))) (= var0 (getInt (read var8 (nthAddrRange var4 (+ (* 3 var5) (- 1))))))))) (inv_main36 var8 var7 var6 var5 var4 var3 var2 var1 var0))))
(assert (forall ((var0 Int) (var1 Int) (var2 Int) (var3 Int) (var4 AddrRange) (var5 Int) (var6 Int) (var7 Int) (var8 Heap)) (or (not (and (inv_main42 var8 var7 var6 var5 var4 var3 var2 var1) (and (is-O_Int (read var8 (nthAddrRange var4 (+ (* 3 var5) (- 3))))) (= var0 (getInt (read var8 (nthAddrRange var4 (+ (* 3 var5) (- 3))))))))) (inv_main46 var8 var7 var6 var5 var4 var3 var2 var1 var0))))
(assert (forall ((var0 Int) (var1 Int) (var2 Int) (var3 Int) (var4 AddrRange) (var5 Int) (var6 Int) (var7 Int) (var8 Heap)) (or (not (and (inv_main56 var8 var7 var6 var5 var4 var3 var2 var1) (and (is-O_Int (read var8 (nthAddrRange var4 (+ (* 3 var5) (- 3))))) (= var0 (getInt (read var8 (nthAddrRange var4 (+ (* 3 var5) (- 3))))))))) (inv_main58 var8 var7 var6 var5 var4 var3 var2 var1 var0))))
(assert (forall ((var0 Heap) (var1 Int) (var2 Int) (var3 Int) (var4 Int) (var5 AddrRange) (var6 Int) (var7 Int) (var8 Int) (var9 Heap)) (or (not (and (inv_main57 var9 var8 var7 var6 var5 var4 var3 var2 var1) (and (and (is-O_Int (read var9 (nthAddrRange var5 (+ (* 3 var6) (- 2))))) (is-O_Int (read var9 (nthAddrRange var5 (+ (* 3 var6) (- 2)))))) (= var0 (write var9 (nthAddrRange var5 (+ (* 3 var6) (- 2))) (O_Int var1)))))) (inv_main56 var0 var8 var7 var6 var5 var4 var3 var2))))
(assert (forall ((var0 Heap) (var1 Int) (var2 Int) (var3 Int) (var4 Int) (var5 AddrRange) (var6 Int) (var7 Int) (var8 Int) (var9 Heap)) (or (not (and (inv_main35 var9 var8 var7 var6 var5 var4 var3 var2 var1) (and (and (is-O_Int (read var9 (nthAddrRange var5 (+ (* 3 var6) (- 2))))) (is-O_Int (read var9 (nthAddrRange var5 (+ (* 3 var6) (- 2)))))) (= var0 (write var9 (nthAddrRange var5 (+ (* 3 var6) (- 2))) (O_Int var1)))))) (inv_main34 var0 var8 var7 var6 var5 var4 var3 var2))))
(assert (forall ((var0 Int) (var1 Int) (var2 Int) (var3 AddrRange) (var4 Int) (var5 Int) (var6 Int) (var7 Heap) (var8 Int)) (or (not (and (inv_main38 var7 var6 var5 var4 var3 var2 var1 var0) (and (not (<= 0 (+ var1 (* (- 1) var5)))) (and (and (and (and (<= 0 (+ (+ 3 (* (- 1) (+ var6 (* (- 3) var8)))) (- 1))) (<= 0 (+ (+ 3 (* 1 (+ var6 (* (- 3) var8)))) (- 1)))) (or (not (<= 0 (+ (+ var6 (* (- 3) var8)) (- 1)))) (<= 0 (+ var6 (- 1))))) (or (not (<= 0 (+ (* (- 1) (+ var6 (* (- 3) var8))) (- 1)))) (<= 0 (+ (* (- 1) var6) (- 1))))) (<= 0 (+ var8 (* (- 1) var4))))))) (inv_main44 var7 var6 var5 var4 var3 var2 var1 var0))))
(assert (forall ((var0 Heap) (var1 Int) (var2 Int) (var3 Int) (var4 Int) (var5 AddrRange) (var6 Int) (var7 Int) (var8 Int) (var9 Heap)) (or (not (and (inv_main46 var9 var8 var7 var6 var5 var4 var3 var2 var1) (and (and (is-O_Int (read var9 (nthAddrRange var5 (+ (* 3 var6) (- 3))))) (is-O_Int (read var9 (nthAddrRange var5 (+ (* 3 var6) (- 3)))))) (= var0 (write var9 (nthAddrRange var5 (+ (* 3 var6) (- 3))) (O_Int var1)))))) (inv_main45 var0 var8 var7 var6 var5 var4 var3 var2))))
(assert (forall ((var0 Int) (var1 Int) (var2 Int) (var3 AddrRange) (var4 Int) (var5 Int) (var6 Int) (var7 Heap) (var8 Int)) (or (not (and (inv_main49 var7 var6 var5 var4 var3 var2 var1 var0) (and (not (<= 0 (+ var0 (* (- 1) var5)))) (and (and (and (and (<= 0 (+ (+ 3 (* (- 1) (+ var6 (* (- 3) var8)))) (- 1))) (<= 0 (+ (+ 3 (* 1 (+ var6 (* (- 3) var8)))) (- 1)))) (or (not (<= 0 (+ (+ var6 (* (- 3) var8)) (- 1)))) (<= 0 (+ var6 (- 1))))) (or (not (<= 0 (+ (* (- 1) (+ var6 (* (- 3) var8))) (- 1)))) (<= 0 (+ (* (- 1) var6) (- 1))))) (<= 0 (+ var8 (* (- 1) var4))))))) (inv_main55 var7 var6 var5 var4 var3 var2 var1 var0))))
(assert (forall ((var0 Int) (var1 Int) (var2 Int) (var3 Int) (var4 AddrRange) (var5 Int) (var6 Int) (var7 Int) (var8 Heap)) (or (not (and (inv_main53 var8 var7 var6 var5 var4 var3 var2 var1) (and (is-O_Int (read var8 (nthAddrRange var4 (+ (* 3 var5) (- 2))))) (= var0 (getInt (read var8 (nthAddrRange var4 (+ (* 3 var5) (- 2))))))))) (inv_main57 var8 var7 var6 var5 var4 var3 var2 var1 var0))))
(assert (forall ((var0 Int) (var1 Int) (var2 Int) (var3 AddrRange) (var4 Int) (var5 Int) (var6 Int) (var7 Heap) (var8 Int)) (or (not (and (inv_main49 var7 var6 var5 var4 var3 var2 var1 var0) (and (<= 0 (+ var0 (* (- 1) var5))) (and (and (and (and (<= 0 (+ (+ 3 (* (- 1) (+ var6 (* (- 3) var8)))) (- 1))) (<= 0 (+ (+ 3 (* 1 (+ var6 (* (- 3) var8)))) (- 1)))) (or (not (<= 0 (+ (+ var6 (* (- 3) var8)) (- 1)))) (<= 0 (+ var6 (- 1))))) (or (not (<= 0 (+ (* (- 1) (+ var6 (* (- 3) var8))) (- 1)))) (<= 0 (+ (* (- 1) var6) (- 1))))) (<= 0 (+ var8 (* (- 1) var4))))))) (inv_main54 var7 var6 var5 var4 var3 var2 var1 var0))))
(assert (forall ((var0 Int) (var1 Int) (var2 Int) (var3 AddrRange) (var4 Int) (var5 Int) (var6 Int) (var7 Heap) (var8 Int)) (or (not (and (inv_main38 var7 var6 var5 var4 var3 var2 var1 var0) (and (<= 0 (+ var1 (* (- 1) var5))) (and (and (and (and (<= 0 (+ (+ 3 (* (- 1) (+ var6 (* (- 3) var8)))) (- 1))) (<= 0 (+ (+ 3 (* 1 (+ var6 (* (- 3) var8)))) (- 1)))) (or (not (<= 0 (+ (+ var6 (* (- 3) var8)) (- 1)))) (<= 0 (+ var6 (- 1))))) (or (not (<= 0 (+ (* (- 1) (+ var6 (* (- 3) var8))) (- 1)))) (<= 0 (+ (* (- 1) var6) (- 1))))) (<= 0 (+ var8 (* (- 1) var4))))))) (inv_main43 var7 var6 var5 var4 var3 var2 var1 var0))))
(assert (forall ((var0 Heap) (var1 Int) (var2 Int) (var3 Int) (var4 AddrRange) (var5 Int) (var6 Int) (var7 Int) (var8 Heap)) (or (not (and (inv_main54 var8 var7 var6 var5 var4 var3 var2 var1) (and (and (is-O_Int (read var8 (nthAddrRange var4 (+ (* 3 var5) (- 1))))) (is-O_Int (read var8 (nthAddrRange var4 (+ (* 3 var5) (- 1)))))) (= var0 (write var8 (nthAddrRange var4 (+ (* 3 var5) (- 1))) (O_Int var1)))))) (inv_main53 var0 var7 var6 var5 var4 var3 var2 var1))))
(assert (forall ((var0 Heap) (var1 Int) (var2 Int) (var3 Int) (var4 AddrRange) (var5 Int) (var6 Int) (var7 Int) (var8 Heap)) (or (not (and (inv_main55 var8 var7 var6 var5 var4 var3 var2 var1) (and (and (is-O_Int (read var8 (nthAddrRange var4 (+ (* 3 var5) (- 1))))) (is-O_Int (read var8 (nthAddrRange var4 (+ (* 3 var5) (- 1)))))) (= var0 (write var8 (nthAddrRange var4 (+ (* 3 var5) (- 1))) (O_Int 0)))))) (inv_main53 var0 var7 var6 var5 var4 var3 var2 var1))))
(assert (forall ((var0 Int) (var1 Int) (var2 Int) (var3 AddrRange) (var4 Int) (var5 Int) (var6 Int) (var7 Heap) (var8 Int)) (or (not (and (inv_main27 var7 var6 var5 var4 var3 var2 var1 var0) (and (not (<= 0 (+ var2 (* (- 1) var5)))) (and (and (and (and (<= 0 (+ (+ 3 (* (- 1) (+ var6 (* (- 3) var8)))) (- 1))) (<= 0 (+ (+ 3 (* 1 (+ var6 (* (- 3) var8)))) (- 1)))) (or (not (<= 0 (+ (+ var6 (* (- 3) var8)) (- 1)))) (<= 0 (+ var6 (- 1))))) (or (not (<= 0 (+ (* (- 1) (+ var6 (* (- 3) var8))) (- 1)))) (<= 0 (+ (* (- 1) var6) (- 1))))) (<= 0 (+ var8 (* (- 1) var4))))))) (inv_main33 var7 var6 var5 var4 var3 var2 var1 var0))))
(assert (forall ((var0 Heap) (var1 Int) (var2 Int) (var3 Int) (var4 AddrRange) (var5 Int) (var6 Int) (var7 Int) (var8 Heap)) (or (not (and (inv_main43 var8 var7 var6 var5 var4 var3 var2 var1) (and (and (is-O_Int (read var8 (nthAddrRange var4 (+ (* 3 var5) (- 2))))) (is-O_Int (read var8 (nthAddrRange var4 (+ (* 3 var5) (- 2)))))) (= var0 (write var8 (nthAddrRange var4 (+ (* 3 var5) (- 2))) (O_Int var2)))))) (inv_main42 var0 var7 var6 var5 var4 var3 var2 var1))))
(assert (forall ((var0 Heap) (var1 Int) (var2 Int) (var3 Int) (var4 AddrRange) (var5 Int) (var6 Int) (var7 Int) (var8 Heap)) (or (not (and (inv_main44 var8 var7 var6 var5 var4 var3 var2 var1) (and (and (is-O_Int (read var8 (nthAddrRange var4 (+ (* 3 var5) (- 2))))) (is-O_Int (read var8 (nthAddrRange var4 (+ (* 3 var5) (- 2)))))) (= var0 (write var8 (nthAddrRange var4 (+ (* 3 var5) (- 2))) (O_Int 0)))))) (inv_main42 var0 var7 var6 var5 var4 var3 var2 var1))))
(assert (forall ((var0 Int) (var1 Int) (var2 Int) (var3 AddrRange) (var4 Int) (var5 Int) (var6 Int) (var7 Heap) (var8 Int)) (or (not (and (inv_main27 var7 var6 var5 var4 var3 var2 var1 var0) (and (<= 0 (+ var2 (* (- 1) var5))) (and (and (and (and (<= 0 (+ (+ 3 (* (- 1) (+ var6 (* (- 3) var8)))) (- 1))) (<= 0 (+ (+ 3 (* 1 (+ var6 (* (- 3) var8)))) (- 1)))) (or (not (<= 0 (+ (+ var6 (* (- 3) var8)) (- 1)))) (<= 0 (+ var6 (- 1))))) (or (not (<= 0 (+ (* (- 1) (+ var6 (* (- 3) var8))) (- 1)))) (<= 0 (+ (* (- 1) var6) (- 1))))) (<= 0 (+ var8 (* (- 1) var4))))))) (inv_main32 var7 var6 var5 var4 var3 var2 var1 var0))))
(assert (forall ((var0 Int) (var1 Int) (var2 Int) (var3 Int) (var4 AddrRange) (var5 Int) (var6 Int) (var7 Int) (var8 Heap) (var9 Int)) (or (not (and (inv_main27 var8 var7 var6 var5 var4 var3 var2 var1) (and (not (or (not (and (and (and (<= 0 (+ (+ 3 (* (- 1) (+ var7 (* (- 3) var9)))) (- 1))) (<= 0 (+ (+ 3 (* 1 (+ var7 (* (- 3) var9)))) (- 1)))) (or (not (<= 0 (+ (+ var7 (* (- 3) var9)) (- 1)))) (<= 0 (+ var7 (- 1))))) (or (not (<= 0 (+ (* (- 1) (+ var7 (* (- 3) var9))) (- 1)))) (<= 0 (+ (* (- 1) var7) (- 1)))))) (<= 0 (+ var9 (* (- 1) var5))))) (= var0 1)))) (inv_main38 var8 var7 var6 var0 var4 var3 var2 var1))))
(assert (forall ((var0 Int) (var1 Int) (var2 Int) (var3 Int) (var4 AddrRange) (var5 Int) (var6 Int) (var7 Int) (var8 Heap) (var9 Int) (var10 Int) (var11 Int) (var12 Int) (var13 AddrRange) (var14 Int) (var15 Int) (var16 Int) (var17 Heap)) (or (not (and (inv_main47 var17 var16 var15 var14 var13 var12 var11 var10 var9) (and (and (and (is-O_Int (read var17 (nthAddrRange var13 (+ (* 3 var14) (- 1))))) (is-O_Int (read var17 (nthAddrRange var13 (+ (* 3 var14) (- 1)))))) (and (and (and (and (and (and (and (= var8 (write var17 (nthAddrRange var13 (+ (* 3 var14) (- 1))) (O_Int var9))) (= var7 var16)) (= var6 var15)) (= var5 var14)) (= var4 var13)) (= var3 var12)) (= var2 var11)) (= var1 var10))) (= var0 (+ var5 1))))) (inv_main38 var8 var7 var6 var0 var4 var3 var2 var1))))
(assert (forall ((var0 Int) (var1 Int) (var2 Int) (var3 AddrRange) (var4 Int) (var5 Int) (var6 Int) (var7 Heap)) (not (and (inv_main32 var7 var6 var5 var4 var3 var2 var1 var0) (not (is-O_Int (read var7 (nthAddrRange var3 (+ (* 3 var4) (- 3))))))))))
(assert (forall ((var0 Int) (var1 Int) (var2 Int) (var3 AddrRange) (var4 Int) (var5 Int) (var6 Int) (var7 Heap)) (not (and (inv_main32 var7 var6 var5 var4 var3 var2 var1 var0) (and (is-O_Int (read var7 (nthAddrRange var3 (+ (* 3 var4) (- 3))))) (not (within var3 (nthAddrRange var3 (+ (* 3 var4) (- 3))))))))))
(assert (forall ((var0 Int) (var1 Int) (var2 Int) (var3 AddrRange) (var4 Int) (var5 Int) (var6 Int) (var7 Heap)) (not (and (inv_main32 var7 var6 var5 var4 var3 var2 var1 var0) (and (is-O_Int (read var7 (nthAddrRange var3 (+ (* 3 var4) (- 3))))) (not (is-O_Int (read var7 (nthAddrRange var3 (+ (* 3 var4) (- 3)))))))))))
(assert (forall ((var0 Int) (var1 Int) (var2 Int) (var3 AddrRange) (var4 Int) (var5 Int) (var6 Int) (var7 Heap)) (not (and (inv_main33 var7 var6 var5 var4 var3 var2 var1 var0) (not (is-O_Int (read var7 (nthAddrRange var3 (+ (* 3 var4) (- 3))))))))))
(assert (forall ((var0 Int) (var1 Int) (var2 Int) (var3 AddrRange) (var4 Int) (var5 Int) (var6 Int) (var7 Heap)) (not (and (inv_main33 var7 var6 var5 var4 var3 var2 var1 var0) (and (is-O_Int (read var7 (nthAddrRange var3 (+ (* 3 var4) (- 3))))) (not (within var3 (nthAddrRange var3 (+ (* 3 var4) (- 3))))))))))
(assert (forall ((var0 Int) (var1 Int) (var2 Int) (var3 AddrRange) (var4 Int) (var5 Int) (var6 Int) (var7 Heap)) (not (and (inv_main33 var7 var6 var5 var4 var3 var2 var1 var0) (and (is-O_Int (read var7 (nthAddrRange var3 (+ (* 3 var4) (- 3))))) (not (is-O_Int (read var7 (nthAddrRange var3 (+ (* 3 var4) (- 3)))))))))))
(assert (forall ((var0 Int) (var1 Int) (var2 Int) (var3 AddrRange) (var4 Int) (var5 Int) (var6 Int) (var7 Heap)) (not (and (inv_main31 var7 var6 var5 var4 var3 var2 var1 var0) (not (is-O_Int (read var7 (nthAddrRange var3 (+ (* 3 var4) (- 2))))))))))
(assert (forall ((var0 Int) (var1 Int) (var2 Int) (var3 AddrRange) (var4 Int) (var5 Int) (var6 Int) (var7 Heap)) (not (and (inv_main31 var7 var6 var5 var4 var3 var2 var1 var0) (and (is-O_Int (read var7 (nthAddrRange var3 (+ (* 3 var4) (- 2))))) (not (within var3 (nthAddrRange var3 (+ (* 3 var4) (- 2))))))))))
(assert (forall ((var0 Int) (var1 Int) (var2 Int) (var3 Int) (var4 AddrRange) (var5 Int) (var6 Int) (var7 Int) (var8 Heap)) (not (and (inv_main35 var8 var7 var6 var5 var4 var3 var2 var1 var0) (not (is-O_Int (read var8 (nthAddrRange var4 (+ (* 3 var5) (- 2))))))))))
(assert (forall ((var0 Int) (var1 Int) (var2 Int) (var3 Int) (var4 AddrRange) (var5 Int) (var6 Int) (var7 Int) (var8 Heap)) (not (and (inv_main35 var8 var7 var6 var5 var4 var3 var2 var1 var0) (and (is-O_Int (read var8 (nthAddrRange var4 (+ (* 3 var5) (- 2))))) (not (within var4 (nthAddrRange var4 (+ (* 3 var5) (- 2))))))))))
(assert (forall ((var0 Int) (var1 Int) (var2 Int) (var3 Int) (var4 AddrRange) (var5 Int) (var6 Int) (var7 Int) (var8 Heap)) (not (and (inv_main35 var8 var7 var6 var5 var4 var3 var2 var1 var0) (and (is-O_Int (read var8 (nthAddrRange var4 (+ (* 3 var5) (- 2))))) (not (is-O_Int (read var8 (nthAddrRange var4 (+ (* 3 var5) (- 2)))))))))))
(assert (forall ((var0 Int) (var1 Int) (var2 Int) (var3 AddrRange) (var4 Int) (var5 Int) (var6 Int) (var7 Heap)) (not (and (inv_main34 var7 var6 var5 var4 var3 var2 var1 var0) (not (is-O_Int (read var7 (nthAddrRange var3 (+ (* 3 var4) (- 1))))))))))
(assert (forall ((var0 Int) (var1 Int) (var2 Int) (var3 AddrRange) (var4 Int) (var5 Int) (var6 Int) (var7 Heap)) (not (and (inv_main34 var7 var6 var5 var4 var3 var2 var1 var0) (and (is-O_Int (read var7 (nthAddrRange var3 (+ (* 3 var4) (- 1))))) (not (within var3 (nthAddrRange var3 (+ (* 3 var4) (- 1))))))))))
(assert (forall ((var0 Int) (var1 Int) (var2 Int) (var3 Int) (var4 AddrRange) (var5 Int) (var6 Int) (var7 Int) (var8 Heap)) (not (and (inv_main36 var8 var7 var6 var5 var4 var3 var2 var1 var0) (not (is-O_Int (read var8 (nthAddrRange var4 (+ (* 3 var5) (- 1))))))))))
(assert (forall ((var0 Int) (var1 Int) (var2 Int) (var3 Int) (var4 AddrRange) (var5 Int) (var6 Int) (var7 Int) (var8 Heap)) (not (and (inv_main36 var8 var7 var6 var5 var4 var3 var2 var1 var0) (and (is-O_Int (read var8 (nthAddrRange var4 (+ (* 3 var5) (- 1))))) (not (within var4 (nthAddrRange var4 (+ (* 3 var5) (- 1))))))))))
(assert (forall ((var0 Int) (var1 Int) (var2 Int) (var3 Int) (var4 AddrRange) (var5 Int) (var6 Int) (var7 Int) (var8 Heap)) (not (and (inv_main36 var8 var7 var6 var5 var4 var3 var2 var1 var0) (and (is-O_Int (read var8 (nthAddrRange var4 (+ (* 3 var5) (- 1))))) (not (is-O_Int (read var8 (nthAddrRange var4 (+ (* 3 var5) (- 1)))))))))))
(assert (forall ((var0 Int) (var1 Int) (var2 Int) (var3 AddrRange) (var4 Int) (var5 Int) (var6 Int) (var7 Heap)) (not (and (inv_main43 var7 var6 var5 var4 var3 var2 var1 var0) (not (is-O_Int (read var7 (nthAddrRange var3 (+ (* 3 var4) (- 2))))))))))
(assert (forall ((var0 Int) (var1 Int) (var2 Int) (var3 AddrRange) (var4 Int) (var5 Int) (var6 Int) (var7 Heap)) (not (and (inv_main43 var7 var6 var5 var4 var3 var2 var1 var0) (and (is-O_Int (read var7 (nthAddrRange var3 (+ (* 3 var4) (- 2))))) (not (within var3 (nthAddrRange var3 (+ (* 3 var4) (- 2))))))))))
(assert (forall ((var0 Int) (var1 Int) (var2 Int) (var3 AddrRange) (var4 Int) (var5 Int) (var6 Int) (var7 Heap)) (not (and (inv_main43 var7 var6 var5 var4 var3 var2 var1 var0) (and (is-O_Int (read var7 (nthAddrRange var3 (+ (* 3 var4) (- 2))))) (not (is-O_Int (read var7 (nthAddrRange var3 (+ (* 3 var4) (- 2)))))))))))
(assert (forall ((var0 Int) (var1 Int) (var2 Int) (var3 AddrRange) (var4 Int) (var5 Int) (var6 Int) (var7 Heap)) (not (and (inv_main44 var7 var6 var5 var4 var3 var2 var1 var0) (not (is-O_Int (read var7 (nthAddrRange var3 (+ (* 3 var4) (- 2))))))))))
(assert (forall ((var0 Int) (var1 Int) (var2 Int) (var3 AddrRange) (var4 Int) (var5 Int) (var6 Int) (var7 Heap)) (not (and (inv_main44 var7 var6 var5 var4 var3 var2 var1 var0) (and (is-O_Int (read var7 (nthAddrRange var3 (+ (* 3 var4) (- 2))))) (not (within var3 (nthAddrRange var3 (+ (* 3 var4) (- 2))))))))))
(assert (forall ((var0 Int) (var1 Int) (var2 Int) (var3 AddrRange) (var4 Int) (var5 Int) (var6 Int) (var7 Heap)) (not (and (inv_main44 var7 var6 var5 var4 var3 var2 var1 var0) (and (is-O_Int (read var7 (nthAddrRange var3 (+ (* 3 var4) (- 2))))) (not (is-O_Int (read var7 (nthAddrRange var3 (+ (* 3 var4) (- 2)))))))))))
(assert (forall ((var0 Int) (var1 Int) (var2 Int) (var3 AddrRange) (var4 Int) (var5 Int) (var6 Int) (var7 Heap)) (not (and (inv_main42 var7 var6 var5 var4 var3 var2 var1 var0) (not (is-O_Int (read var7 (nthAddrRange var3 (+ (* 3 var4) (- 3))))))))))
(assert (forall ((var0 Int) (var1 Int) (var2 Int) (var3 AddrRange) (var4 Int) (var5 Int) (var6 Int) (var7 Heap)) (not (and (inv_main42 var7 var6 var5 var4 var3 var2 var1 var0) (and (is-O_Int (read var7 (nthAddrRange var3 (+ (* 3 var4) (- 3))))) (not (within var3 (nthAddrRange var3 (+ (* 3 var4) (- 3))))))))))
(assert (forall ((var0 Int) (var1 Int) (var2 Int) (var3 Int) (var4 AddrRange) (var5 Int) (var6 Int) (var7 Int) (var8 Heap)) (not (and (inv_main46 var8 var7 var6 var5 var4 var3 var2 var1 var0) (not (is-O_Int (read var8 (nthAddrRange var4 (+ (* 3 var5) (- 3))))))))))
(assert (forall ((var0 Int) (var1 Int) (var2 Int) (var3 Int) (var4 AddrRange) (var5 Int) (var6 Int) (var7 Int) (var8 Heap)) (not (and (inv_main46 var8 var7 var6 var5 var4 var3 var2 var1 var0) (and (is-O_Int (read var8 (nthAddrRange var4 (+ (* 3 var5) (- 3))))) (not (within var4 (nthAddrRange var4 (+ (* 3 var5) (- 3))))))))))
(assert (forall ((var0 Int) (var1 Int) (var2 Int) (var3 Int) (var4 AddrRange) (var5 Int) (var6 Int) (var7 Int) (var8 Heap)) (not (and (inv_main46 var8 var7 var6 var5 var4 var3 var2 var1 var0) (and (is-O_Int (read var8 (nthAddrRange var4 (+ (* 3 var5) (- 3))))) (not (is-O_Int (read var8 (nthAddrRange var4 (+ (* 3 var5) (- 3)))))))))))
(assert (forall ((var0 Int) (var1 Int) (var2 Int) (var3 AddrRange) (var4 Int) (var5 Int) (var6 Int) (var7 Heap)) (not (and (inv_main45 var7 var6 var5 var4 var3 var2 var1 var0) (not (is-O_Int (read var7 (nthAddrRange var3 (+ (* 3 var4) (- 1))))))))))
(assert (forall ((var0 Int) (var1 Int) (var2 Int) (var3 AddrRange) (var4 Int) (var5 Int) (var6 Int) (var7 Heap)) (not (and (inv_main45 var7 var6 var5 var4 var3 var2 var1 var0) (and (is-O_Int (read var7 (nthAddrRange var3 (+ (* 3 var4) (- 1))))) (not (within var3 (nthAddrRange var3 (+ (* 3 var4) (- 1))))))))))
(assert (forall ((var0 Int) (var1 Int) (var2 Int) (var3 Int) (var4 AddrRange) (var5 Int) (var6 Int) (var7 Int) (var8 Heap)) (not (and (inv_main47 var8 var7 var6 var5 var4 var3 var2 var1 var0) (not (is-O_Int (read var8 (nthAddrRange var4 (+ (* 3 var5) (- 1))))))))))
(assert (forall ((var0 Int) (var1 Int) (var2 Int) (var3 Int) (var4 AddrRange) (var5 Int) (var6 Int) (var7 Int) (var8 Heap)) (not (and (inv_main47 var8 var7 var6 var5 var4 var3 var2 var1 var0) (and (is-O_Int (read var8 (nthAddrRange var4 (+ (* 3 var5) (- 1))))) (not (within var4 (nthAddrRange var4 (+ (* 3 var5) (- 1))))))))))
(assert (forall ((var0 Int) (var1 Int) (var2 Int) (var3 Int) (var4 AddrRange) (var5 Int) (var6 Int) (var7 Int) (var8 Heap)) (not (and (inv_main47 var8 var7 var6 var5 var4 var3 var2 var1 var0) (and (is-O_Int (read var8 (nthAddrRange var4 (+ (* 3 var5) (- 1))))) (not (is-O_Int (read var8 (nthAddrRange var4 (+ (* 3 var5) (- 1)))))))))))
(assert (forall ((var0 Int) (var1 Int) (var2 Int) (var3 AddrRange) (var4 Int) (var5 Int) (var6 Int) (var7 Heap)) (not (and (inv_main54 var7 var6 var5 var4 var3 var2 var1 var0) (not (is-O_Int (read var7 (nthAddrRange var3 (+ (* 3 var4) (- 1))))))))))
(assert (forall ((var0 Int) (var1 Int) (var2 Int) (var3 AddrRange) (var4 Int) (var5 Int) (var6 Int) (var7 Heap)) (not (and (inv_main54 var7 var6 var5 var4 var3 var2 var1 var0) (and (is-O_Int (read var7 (nthAddrRange var3 (+ (* 3 var4) (- 1))))) (not (within var3 (nthAddrRange var3 (+ (* 3 var4) (- 1))))))))))
(assert (forall ((var0 Int) (var1 Int) (var2 Int) (var3 AddrRange) (var4 Int) (var5 Int) (var6 Int) (var7 Heap)) (not (and (inv_main54 var7 var6 var5 var4 var3 var2 var1 var0) (and (is-O_Int (read var7 (nthAddrRange var3 (+ (* 3 var4) (- 1))))) (not (is-O_Int (read var7 (nthAddrRange var3 (+ (* 3 var4) (- 1)))))))))))
(assert (forall ((var0 Int) (var1 Int) (var2 Int) (var3 AddrRange) (var4 Int) (var5 Int) (var6 Int) (var7 Heap)) (not (and (inv_main55 var7 var6 var5 var4 var3 var2 var1 var0) (not (is-O_Int (read var7 (nthAddrRange var3 (+ (* 3 var4) (- 1))))))))))
(assert (forall ((var0 Int) (var1 Int) (var2 Int) (var3 AddrRange) (var4 Int) (var5 Int) (var6 Int) (var7 Heap)) (not (and (inv_main55 var7 var6 var5 var4 var3 var2 var1 var0) (and (is-O_Int (read var7 (nthAddrRange var3 (+ (* 3 var4) (- 1))))) (not (within var3 (nthAddrRange var3 (+ (* 3 var4) (- 1))))))))))
(assert (forall ((var0 Int) (var1 Int) (var2 Int) (var3 AddrRange) (var4 Int) (var5 Int) (var6 Int) (var7 Heap)) (not (and (inv_main55 var7 var6 var5 var4 var3 var2 var1 var0) (and (is-O_Int (read var7 (nthAddrRange var3 (+ (* 3 var4) (- 1))))) (not (is-O_Int (read var7 (nthAddrRange var3 (+ (* 3 var4) (- 1)))))))))))
(assert (forall ((var0 Int) (var1 Int) (var2 Int) (var3 AddrRange) (var4 Int) (var5 Int) (var6 Int) (var7 Heap)) (not (and (inv_main53 var7 var6 var5 var4 var3 var2 var1 var0) (not (is-O_Int (read var7 (nthAddrRange var3 (+ (* 3 var4) (- 2))))))))))
(assert (forall ((var0 Int) (var1 Int) (var2 Int) (var3 AddrRange) (var4 Int) (var5 Int) (var6 Int) (var7 Heap)) (not (and (inv_main53 var7 var6 var5 var4 var3 var2 var1 var0) (and (is-O_Int (read var7 (nthAddrRange var3 (+ (* 3 var4) (- 2))))) (not (within var3 (nthAddrRange var3 (+ (* 3 var4) (- 2))))))))))
(assert (forall ((var0 Int) (var1 Int) (var2 Int) (var3 Int) (var4 AddrRange) (var5 Int) (var6 Int) (var7 Int) (var8 Heap)) (not (and (inv_main57 var8 var7 var6 var5 var4 var3 var2 var1 var0) (not (is-O_Int (read var8 (nthAddrRange var4 (+ (* 3 var5) (- 2))))))))))
(assert (forall ((var0 Int) (var1 Int) (var2 Int) (var3 Int) (var4 AddrRange) (var5 Int) (var6 Int) (var7 Int) (var8 Heap)) (not (and (inv_main57 var8 var7 var6 var5 var4 var3 var2 var1 var0) (and (is-O_Int (read var8 (nthAddrRange var4 (+ (* 3 var5) (- 2))))) (not (within var4 (nthAddrRange var4 (+ (* 3 var5) (- 2))))))))))
(assert (forall ((var0 Int) (var1 Int) (var2 Int) (var3 Int) (var4 AddrRange) (var5 Int) (var6 Int) (var7 Int) (var8 Heap)) (not (and (inv_main57 var8 var7 var6 var5 var4 var3 var2 var1 var0) (and (is-O_Int (read var8 (nthAddrRange var4 (+ (* 3 var5) (- 2))))) (not (is-O_Int (read var8 (nthAddrRange var4 (+ (* 3 var5) (- 2)))))))))))
(assert (forall ((var0 Int) (var1 Int) (var2 Int) (var3 AddrRange) (var4 Int) (var5 Int) (var6 Int) (var7 Heap)) (not (and (inv_main56 var7 var6 var5 var4 var3 var2 var1 var0) (not (is-O_Int (read var7 (nthAddrRange var3 (+ (* 3 var4) (- 3))))))))))
(assert (forall ((var0 Int) (var1 Int) (var2 Int) (var3 AddrRange) (var4 Int) (var5 Int) (var6 Int) (var7 Heap)) (not (and (inv_main56 var7 var6 var5 var4 var3 var2 var1 var0) (and (is-O_Int (read var7 (nthAddrRange var3 (+ (* 3 var4) (- 3))))) (not (within var3 (nthAddrRange var3 (+ (* 3 var4) (- 3))))))))))
(assert (forall ((var0 Int) (var1 Int) (var2 Int) (var3 Int) (var4 AddrRange) (var5 Int) (var6 Int) (var7 Int) (var8 Heap)) (not (and (inv_main58 var8 var7 var6 var5 var4 var3 var2 var1 var0) (not (is-O_Int (read var8 (nthAddrRange var4 (+ (* 3 var5) (- 3))))))))))
(assert (forall ((var0 Int) (var1 Int) (var2 Int) (var3 Int) (var4 AddrRange) (var5 Int) (var6 Int) (var7 Int) (var8 Heap)) (not (and (inv_main58 var8 var7 var6 var5 var4 var3 var2 var1 var0) (and (is-O_Int (read var8 (nthAddrRange var4 (+ (* 3 var5) (- 3))))) (not (within var4 (nthAddrRange var4 (+ (* 3 var5) (- 3))))))))))
(assert (forall ((var0 Int) (var1 Int) (var2 Int) (var3 Int) (var4 AddrRange) (var5 Int) (var6 Int) (var7 Int) (var8 Heap)) (not (and (inv_main58 var8 var7 var6 var5 var4 var3 var2 var1 var0) (and (is-O_Int (read var8 (nthAddrRange var4 (+ (* 3 var5) (- 3))))) (not (is-O_Int (read var8 (nthAddrRange var4 (+ (* 3 var5) (- 3)))))))))))
(assert (forall ((var0 Int) (var1 Int) (var2 Int) (var3 AddrRange) (var4 Int) (var5 Int) (var6 Int) (var7 Heap)) (not (and (inv_main60 var7 var6 var5 var4 var3 var2 var1 var0) (not (is-O_Int (read var7 (nthAddrRange var3 var4))))))))
(assert (forall ((var0 Int) (var1 Int) (var2 Int) (var3 AddrRange) (var4 Int) (var5 Int) (var6 Int) (var7 Heap)) (not (and (inv_main60 var7 var6 var5 var4 var3 var2 var1 var0) (not (within var3 (nthAddrRange var3 var4)))))))
(assert (forall ((var0 Int) (var1 Int) (var2 Int) (var3 AddrRange) (var4 Int) (var5 Int) (var6 Int) (var7 Heap)) (not (and (inv_main60 var7 var6 var5 var4 var3 var2 var1 var0) (not (is-O_Int (read var7 (nthAddrRange var3 var4))))))))
(assert (forall ((var0 Int) (var1 Int) (var2 Int) (var3 AddrRange) (var4 Int) (var5 Int) (var6 Int) (var7 Heap)) (not (and (inv_main60 var7 var6 var5 var4 var3 var2 var1 var0) (not (within var3 (nthAddrRange var3 var4)))))))
(assert (forall ((var0 Int) (var1 Int) (var2 Int) (var3 AddrRange) (var4 Int) (var5 Int) (var6 Int) (var7 Heap)) (not (and (inv_main60 var7 var6 var5 var4 var3 var2 var1 var0) (not (is-O_Int (read var7 (nthAddrRange var3 var4))))))))
(assert (forall ((var0 Int) (var1 Int) (var2 Int) (var3 AddrRange) (var4 Int) (var5 Int) (var6 Int) (var7 Heap)) (not (and (inv_main60 var7 var6 var5 var4 var3 var2 var1 var0) (and (is-O_Int (read var7 (nthAddrRange var3 var4))) (not (within var3 (nthAddrRange var3 var4))))))))
(assert (forall ((var0 Int) (var1 Int) (var2 Int) (var3 AddrRange) (var4 Int) (var5 Int) (var6 Int) (var7 Heap)) (not (and (inv_main60 var7 var6 var5 var4 var3 var2 var1 var0) (and (and (is-O_Int (read var7 (nthAddrRange var3 var4))) (not (<= 0 (+ (getInt (read var7 (nthAddrRange var3 var4))) (* (- 1) var5))))) (not (is-O_Int (read var7 (nthAddrRange var3 var4)))))))))
(assert (forall ((var0 Int) (var1 Int) (var2 Int) (var3 AddrRange) (var4 Int) (var5 Int) (var6 Int) (var7 Heap)) (not (and (inv_main60 var7 var6 var5 var4 var3 var2 var1 var0) (and (and (and (is-O_Int (read var7 (nthAddrRange var3 var4))) (not (<= 0 (+ (getInt (read var7 (nthAddrRange var3 var4))) (* (- 1) var5))))) (is-O_Int (read var7 (nthAddrRange var3 var4)))) (not (within var3 (nthAddrRange var3 var4))))))))
(assert (forall ((var0 Int) (var1 Int) (var2 Int) (var3 Int) (var4 AddrRange) (var5 Int) (var6 Int) (var7 Int) (var8 Heap)) (not (and (inv_main63 var8 var7 var6 var5 var4 var3 var2 var1 var0) (= var0 0)))))
(check-sat)
